gen	cost
1	1410
2	1391
3	1366
4	1352
5	1335
6	1316
7	1300
8	1295
9	1289
10	1288
11	1286
12	1285
13	1283
14	1281
15	1281
16	1281
17	1281
18	1281
19	1281
20	1281
21	1281
22	1281
23	1281
24	1281
25	1281
26	1281
27	1281
28	1281
29	1281
30	1281
31	1281
32	1281
33	1281
34	1281
35	1281
36	1281
37	1281
38	1281
39	1281
40	1281
41	1281
42	1281
43	1281
44	1281
45	1281
46	1281
47	1281
48	1281
49	1281
50	1281

